(set-logic ALL)
(set-option :fmf-bound true)
(set-option :produce-models true)
(declare-sort Object 0)

(declare-fun var25 (Bool) Bool)
(declare-fun var46 (Bool) Bool)
(declare-fun var39 (Bool) Bool)
(declare-fun var2 (Bool) Bool)
(declare-fun var79 (Bool) Bool)
(declare-fun var65 (Bool) Bool)
(declare-fun var22 (Bool) Bool)
(declare-fun var74 (Bool) Bool)
(declare-fun var67 (Bool) Bool)
(declare-fun var69 (Bool) Bool)
(declare-fun var91 (Bool) Bool)
(declare-fun var44 (Bool) Bool)
(declare-fun var36 (Bool) Bool)
(declare-fun var17 (Bool) Bool)
(declare-fun var100 (Bool) Bool)
(declare-fun var95 (Bool) Bool)
(declare-fun var11 (Bool) Bool)
(declare-fun var30 (Bool) Bool)
(declare-fun var47 (Bool) Bool)
(declare-fun var9 (Bool) Bool)
(declare-fun var73 (Bool) Bool)
(declare-fun var53 (Bool) Bool)
(declare-fun var51 (Bool) Bool)
(declare-fun var19 (Bool) Bool)
(declare-fun var24 (Bool) Bool)
(declare-fun var84 (Bool) Bool)
(declare-fun var23 (Bool) Bool)
(declare-fun var82 (Bool) Bool)
(declare-fun var60 (Bool) Bool)
(declare-fun var57 (Bool) Bool)
(declare-fun var5 (Bool) Bool)
(declare-fun var93 (Bool) Bool)
(declare-fun var40 (Bool) Bool)
(declare-fun var4 (Bool) Bool)
(declare-fun var89 (Bool) Bool)
(declare-fun var59 (Bool) Bool)
(declare-fun var71 (Bool) Bool)
(declare-fun var98 (Bool) Bool)
(declare-fun var50 (Bool) Bool)
(declare-fun var81 (Bool) Bool)
(declare-fun var27 (Bool) Bool)
(declare-fun var94 (Bool) Bool)
(declare-fun var43 (Bool) Bool)
(declare-fun var66 (Bool) Bool)
(declare-fun var34 (Bool) Bool)
(declare-fun var96 (Bool) Bool)
(declare-fun var78 (Bool) Bool)
(declare-fun var75 (Bool) Bool)
(declare-fun var37 (Bool) Bool)
(declare-fun var14 (Bool) Bool)
(declare-fun var29 (Bool) Bool)
(declare-fun var70 (Bool) Bool)
(declare-fun var54 (Bool) Bool)
(declare-fun var55 (Bool) Bool)
(declare-fun var99 (Bool) Bool)
(declare-fun var62 (Bool) Bool)
(declare-fun var13 (Bool) Bool)
(declare-fun var8 (Bool) Bool)
(declare-fun var10 (Bool) Bool)
(declare-fun var76 (Bool) Bool)
(declare-fun var56 (Bool) Bool)
(declare-fun var64 (Bool) Bool)
(declare-fun var87 (Bool) Bool)
(declare-fun var58 (Bool) Bool)
(declare-fun var52 (Bool) Bool)
(declare-fun var16 (Bool) Bool)
(declare-fun var72 (Bool) Bool)
(declare-fun var80 (Bool) Bool)
(declare-fun var33 (Bool) Bool)
(declare-fun var41 (Bool) Bool)
(declare-fun var77 (Bool) Bool)
(declare-fun var85 (Bool) Bool)
(declare-fun var32 (Bool) Bool)
(declare-fun var68 (Bool) Bool)
(declare-fun var31 (Bool) Bool)
(declare-fun var28 (Bool) Bool)
(declare-fun var15 (Bool) Bool)
(declare-fun var12 (Bool) Bool)
(declare-fun var88 (Bool) Bool)
(declare-fun var26 (Bool) Bool)
(declare-fun var92 (Bool) Bool)
(declare-fun var63 (Bool) Bool)
(declare-fun var42 (Bool) Bool)
(declare-fun var45 (Bool) Bool)
(declare-fun var49 (Bool) Bool)
(declare-fun var48 (Bool) Bool)
(declare-fun var97 (Bool) Bool)
(declare-fun var3 (Bool) Bool)
(declare-fun var35 (Bool) Bool)
(declare-fun var90 (Bool) Bool)
(declare-fun var18 (Bool) Bool)
(declare-fun var61 (Bool) Bool)
(declare-fun var38 (Bool) Bool)
(declare-fun var1 (Bool) Bool)
(declare-fun var7 (Bool) Bool)
(declare-fun var21 (Bool) Bool)
(declare-fun var86 (Bool) Bool)
(declare-fun var6 (Bool) Bool)
(declare-fun var20 (Bool) Bool)
(declare-fun var83 (Bool) Bool)
(declare-fun GTE (Bool Bool) Bool)
(define-fun implies ((p Bool)(q Bool)) Bool (or (not p) q))

(assert (forall ((x Bool)) (not(or (var25 x) (not(var46 x))))))
(assert (forall ((x Bool)) (not(or (not(var39 x)) (var2 x)))))
(assert (forall ((x Bool)) (not(or (var79 x) (not(var65 x))))))
(assert (forall ((x Bool)) (not(or (var22 x) (var74 x)))))
(assert (forall ((x Bool)) (not(or (not(var67 x)) (not(var69 x))))))
(assert (forall ((x Bool)) (not(or (var91 x) (var44 x)))))
(assert (forall ((x Bool)) (not(or (var46 x) (not(var36 x))))))
(assert (forall ((x Bool)) (not(or (var17 x) (var100 x)))))
(assert (forall ((x Bool)) (not(or (not(var95 x)) (var11 x)))))
(assert (forall ((x Bool)) (not(or (var30 x) (not(var47 x))))))
(assert (forall ((x Bool)) (not(or (not(var9 x)) (var47 x)))))
(assert (forall ((x Bool)) (not(or (not(var73 x)) (var53 x)))))
(assert (forall ((x Bool)) (not(or (not(var65 x)) (not(var51 x))))))
(assert (forall ((x Bool)) (not(or (var19 x) (not(var24 x))))))
(assert (forall ((x Bool)) (not(or (not(var84 x)) (not(var23 x))))))
(assert (forall ((x Bool)) (not(or (not(var82 x)) (not(var60 x))))))
(assert (forall ((x Bool)) (not(or (var57 x) (var5 x)))))
(assert (forall ((x Bool)) (not(or (not(var57 x)) (var93 x)))))
(assert (forall ((x Bool)) (not(or (var40 x) (var4 x)))))
(assert (forall ((x Bool)) (not(or (var91 x) (not(var69 x))))))
(assert (forall ((x Bool)) (not(or (not(var89 x)) (not(var65 x))))))
(assert (forall ((x Bool)) (not(or (not(var59 x)) (var71 x)))))
(assert (forall ((x Bool)) (not(or (not(var89 x)) (var98 x)))))
(assert (forall ((x Bool)) (not(or (not(var84 x)) (var50 x)))))
(assert (forall ((x Bool)) (not(or (not(var81 x)) (var27 x)))))
(assert (forall ((x Bool)) (not(or (not(var94 x)) (not(var71 x))))))
(assert (forall ((x Bool))  (exists ((x1 Bool)) (and(GTE x x1)  (implies (var60 x1) (not(var43 x)))))))
(assert (forall ((x Bool))  (exists ((x1 Bool)) (and(GTE x x1)  (implies (not(var40 x1)) (var66 x))))))
(assert (forall ((x Bool))  (exists ((x1 Bool)) (and(GTE x x1)  (implies (var47 x1) (var34 x))))))
(assert (forall ((x Bool))  (exists ((x1 Bool)) (and(GTE x x1)  (implies (var96 x1) (not(var78 x)))))))
(assert (forall ((x Bool))  (exists ((x1 Bool)) (and(GTE x x1)  (implies (var75 x1) (var73 x))))))
(assert (forall ((x Bool))  (exists ((x1 Bool)) (and(GTE x x1)  (implies (not(var43 x1)) (not(var19 x)))))))
(assert (forall ((x Bool))  (exists ((x1 Bool)) (and(GTE x x1)  (implies (var39 x1) (var98 x))))))
(assert (forall ((x Bool)) (not(or (not(var71 x)) (var37 x) (not(var89 x))))))
(assert (forall ((x Bool)) (not(or (not(var44 x)) (not(var14 x)) (var91 x)))))
(assert (forall ((x Bool)) (not(or (var29 x) (var70 x) (not(var54 x))))))
(assert (forall ((x Bool)) (not(or (var71 x) (var40 x) (var95 x)))))
(assert (forall ((x Bool)) (not(or (not(var55 x)) (var37 x) (not(var46 x))))))
(assert (forall ((x Bool)) (not(or (not(var82 x)) (var99 x) (not(var65 x))))))
(assert (forall ((x Bool)) (not(or (not(var62 x)) (var13 x) (not(var44 x))))))
(assert (forall ((x Bool)) (not(or (var8 x) (not(var98 x)) (var10 x)))))
(assert (forall ((x Bool)) (not(or (not(var93 x)) (not(var11 x)) (not(var76 x))))))
(assert (forall ((x Bool)) (not(or (not(var51 x)) (var17 x) (var44 x)))))
(assert (forall ((x Bool)) (not(or (var4 x) (not(var56 x)) (not(var78 x))))))
(assert (forall ((x Bool)) (not(or (not(var64 x)) (var100 x) (var8 x)))))
(assert (forall ((x Bool)) (not(or (not(var91 x)) (var87 x) (var82 x)))))
(assert (forall ((x Bool)) (not(or (not(var53 x)) (var58 x) (not(var13 x))))))
(assert (forall ((x Bool)) (not(or (not(var52 x)) (var22 x) (not(var16 x))))))
(assert (forall ((x Bool)) (not(or (var72 x) (not(var74 x)) (var96 x)))))
(assert (forall ((x Bool)) (not(or (var24 x) (not(var22 x)) (not(var80 x))))))
(assert (forall ((x Bool)) (not(or (var99 x) (not(var33 x)) (not(var39 x))))))
(assert (forall ((x Bool)) (not(or (not(var50 x)) (var44 x) (var41 x)))))
(assert (forall ((x Bool)) (not(or (var77 x) (not(var19 x)) (not(var85 x))))))
(assert (forall ((x Bool)) (not(or (var95 x) (not(var70 x)) (not(var32 x))))))
(assert (forall ((x Bool)) (not(or (var9 x) (not(var68 x)) (not(var32 x))))))
(assert (forall ((x Bool)) (not(or (not(var31 x)) (var91 x) (not(var95 x))))))
(assert (forall ((x Bool)) (not(or (var28 x) (var27 x) (var15 x)))))
(assert (forall ((x Bool)) (not(or (var24 x) (not(var55 x)) (not(var12 x))))))
(assert (forall ((x Bool)) (not(or (var76 x) (not(var4 x)) (var88 x)))))
(assert (forall ((x Bool))  (exists ((x1 Bool)) (and(GTE x x1)  (implies (not(var26 x1)) (or (not(var34 x)) (var22 x)))))))
(assert (forall ((x Bool))  (exists ((x1 Bool)) (and(GTE x x1)  (implies (or (not(var43 x1)) (var59 x1)) (var70 x))))))
(assert (forall ((x Bool))  (exists ((x1 Bool)) (and(GTE x x1)  (implies (not(var91 x1)) (or (var92 x) (not(var88 x))))))))
(assert (forall ((x Bool))  (exists ((x1 Bool)) (and(GTE x x1)  (implies (var15 x1) (or (not(var77 x)) (not(var82 x))))))))
(assert (forall ((x Bool))  (exists ((x1 Bool)) (and(GTE x x1)  (implies (or (not(var58 x1)) (var77 x1)) (var63 x))))))
(assert (forall ((x Bool))  (exists ((x1 Bool)) (and(GTE x x1)  (implies (or (var91 x1) (not(var79 x1))) (var10 x))))))
(assert (forall ((x Bool))  (exists ((x1 Bool)) (and(GTE x x1)  (implies (or (var8 x1) (not(var81 x1))) (not(var92 x)))))))
(assert (forall ((x Bool)) (not(or (var57 x) (var62 x) (var96 x) (var36 x)))))
(assert (forall ((x Bool)) (not(or (not(var42 x)) (var45 x) (var12 x) (var44 x)))))
(assert (forall ((x Bool)) (not(or (var91 x) (not(var58 x)) (not(var8 x)) (var49 x)))))
(assert (forall ((x Bool)) (not(or (var48 x) (var66 x) (not(var68 x)) (var27 x)))))
(assert (forall ((x Bool)) (not(or (var88 x) (not(var52 x)) (var77 x) (not(var78 x))))))
(assert (forall ((x Bool)) (not(or (var82 x) (var91 x) (var47 x) (not(var56 x))))))
(assert (forall ((x Bool)) (not(or (var97 x) (var79 x) (var95 x) (var10 x)))))
(assert (forall ((x Bool)) (not(or (var46 x) (var26 x) (not(var71 x)) (not(var30 x))))))
(assert (forall ((x Bool)) (not(or (var17 x) (var49 x) (not(var58 x)) (not(var3 x))))))
(assert (forall ((x Bool)) (not(or (var17 x) (not(var49 x)) (not(var87 x)) (var79 x)))))
(assert (forall ((x Bool)) (not(or (not(var39 x)) (not(var80 x)) (var41 x) (var27 x)))))
(assert (forall ((x Bool)) (not(or (var67 x) (var85 x) (not(var57 x)) (not(var99 x))))))
(assert (forall ((x Bool)) (not(or (not(var31 x)) (var16 x) (not(var47 x)) (not(var70 x))))))
(assert (forall ((x Bool)) (not(or (var74 x) (var98 x) (not(var97 x)) (var78 x)))))
(assert (forall ((x Bool)) (not(or (not(var79 x)) (not(var12 x)) (not(var26 x)) (var23 x)))))
(assert (forall ((x Bool)) (not(or (not(var10 x)) (not(var97 x)) (var30 x) (not(var26 x))))))
(assert (forall ((x Bool)) (not(or (not(var64 x)) (not(var59 x)) (not(var56 x)) (not(var35 x))))))
(assert (forall ((x Bool)) (not(or (var90 x) (not(var48 x)) (var100 x) (var93 x)))))
(assert (forall ((x Bool)) (not(or (not(var18 x)) (var77 x) (var91 x) (not(var61 x))))))
(assert (forall ((x Bool)) (not(or (var38 x) (var98 x) (var54 x) (var1 x)))))
(assert (forall ((x Bool)) (not(or (not(var19 x)) (var96 x) (var5 x) (var89 x)))))
(assert (forall ((x Bool)) (not(or (var31 x) (not(var74 x)) (var29 x) (not(var26 x))))))
(assert (forall ((x Bool)) (not(or (var30 x) (var81 x) (not(var41 x)) (var58 x)))))
(assert (forall ((x Bool)) (not(or (not(var42 x)) (not(var72 x)) (not(var52 x)) (var90 x)))))
(assert (forall ((x Bool)) (not(or (var81 x) (var10 x) (var44 x) (var26 x)))))
(assert (forall ((x Bool)) (not(or (not(var31 x)) (var7 x) (not(var62 x)) (not(var42 x))))))
(assert (forall ((x Bool))  (exists ((x1 Bool)) (and(GTE x x1)  (implies (or (not(var55 x1)) (var77 x1)) (or (not(var37 x)) (not(var70 x))))))))
(assert (forall ((x Bool))  (exists ((x1 Bool)) (and(GTE x x1)  (implies (or (not(var72 x1)) (var61 x1) (not(var24 x1))) (not(var100 x)))))))
(assert (forall ((x Bool))  (exists ((x1 Bool)) (and(GTE x x1)  (implies (not(var55 x1)) (or (var62 x) (var37 x) (var43 x)))))))
(assert (forall ((x Bool))  (exists ((x1 Bool)) (and(GTE x x1)  (implies (or (not(var67 x1)) (not(var90 x1))) (or (var39 x) (var7 x)))))))
(assert (forall ((x Bool))  (exists ((x1 Bool)) (and(GTE x x1)  (implies (or (not(var47 x1)) (not(var21 x1))) (or (not(var79 x)) (var75 x)))))))
(assert (forall ((x Bool))  (exists ((x1 Bool)) (and(GTE x x1)  (implies (not(var68 x1)) (or (var75 x) (var61 x) (var79 x)))))))
(assert (forall ((x Bool))  (exists ((x1 Bool)) (and(GTE x x1)  (implies (or (var28 x1) (var2 x1) (not(var86 x1))) (var12 x))))))
(assert (forall ((x Bool)) (not(or (var35 x) (var48 x) (not(var88 x)) (var23 x) (not(var40 x)) (not(var81 x))))))
(assert (forall ((x Bool)) (not(or (not(var58 x)) (var6 x) (var16 x) (var1 x) (var2 x) (not(var84 x))))))
(assert (forall ((x Bool)) (not(or (var50 x) (var24 x) (not(var55 x)) (var8 x) (not(var54 x)) (not(var68 x))))))
(assert (forall ((x Bool)) (not(or (var65 x) (not(var22 x)) (not(var53 x)) (var11 x) (not(var9 x)) (var24 x)))))
(assert (forall ((x Bool)) (not(or (not(var12 x)) (var20 x) (var96 x) (not(var9 x)) (var71 x) (not(var64 x))))))
(assert (forall ((x Bool)) (not(or (not(var27 x)) (not(var45 x)) (var76 x) (not(var75 x)) (not(var95 x)) (not(var39 x))))))
(assert (forall ((x Bool)) (not(or (var37 x) (not(var66 x)) (var14 x) (var8 x) (var17 x) (var97 x)))))
(assert (forall ((x Bool)) (not(or (not(var31 x)) (not(var54 x)) (not(var41 x)) (var73 x) (not(var3 x)) (not(var50 x))))))
(assert (forall ((x Bool)) (not(or (not(var4 x)) (var1 x) (var40 x) (var62 x) (not(var72 x)) (var82 x)))))
(assert (forall ((x Bool)) (not(or (not(var89 x)) (not(var88 x)) (var64 x) (not(var14 x)) (var26 x) (not(var49 x))))))
(assert (forall ((x Bool)) (not(or (var14 x) (var90 x) (not(var29 x)) (not(var80 x)) (var12 x) (not(var19 x))))))
(assert (forall ((x Bool)) (not(or (var13 x) (not(var46 x)) (var8 x) (not(var30 x)) (not(var1 x)) (not(var90 x))))))
(assert (forall ((x Bool)) (not(or (not(var36 x)) (not(var1 x)) (not(var98 x)) (not(var62 x)) (not(var3 x)) (not(var31 x))))))
(assert (forall ((x Bool)) (not(or (var14 x) (var39 x) (not(var90 x)) (var23 x) (not(var98 x)) (not(var52 x))))))
(assert (forall ((x Bool)) (not(or (not(var78 x)) (not(var31 x)) (var53 x) (var15 x) (var36 x) (var74 x)))))
(assert (forall ((x Bool)) (not(or (not(var40 x)) (not(var38 x)) (var52 x) (var6 x) (var58 x) (var86 x)))))
(assert (forall ((x Bool)) (not(or (not(var26 x)) (not(var8 x)) (not(var62 x)) (not(var39 x)) (var69 x) (var66 x)))))
(assert (forall ((x Bool)) (not(or (var51 x) (var23 x) (var13 x) (not(var61 x)) (var24 x) (not(var36 x))))))
(assert (forall ((x Bool)) (not(or (not(var58 x)) (var30 x) (var23 x) (var94 x) (var60 x) (not(var11 x))))))
(assert (forall ((x Bool)) (not(or (var59 x) (var33 x) (not(var80 x)) (not(var89 x)) (not(var39 x)) (var94 x)))))
(assert (forall ((x Bool)) (not(or (not(var13 x)) (var18 x) (not(var46 x)) (not(var41 x)) (var49 x) (not(var78 x))))))
(assert (forall ((x Bool)) (not(or (not(var39 x)) (not(var96 x)) (not(var68 x)) (var8 x) (var84 x) (not(var5 x))))))
(assert (forall ((x Bool)) (not(or (var62 x) (not(var16 x)) (not(var94 x)) (not(var92 x)) (not(var8 x)) (var93 x)))))
(assert (forall ((x Bool)) (not(or (var28 x) (not(var98 x)) (var3 x) (not(var24 x)) (var9 x) (var26 x)))))
(assert (forall ((x Bool)) (not(or (not(var89 x)) (not(var11 x)) (not(var63 x)) (var13 x) (not(var96 x)) (var76 x)))))
(assert (forall ((x Bool)) (not(or (not(var90 x)) (var27 x) (var78 x) (var48 x) (var76 x) (not(var75 x))))))
(assert (forall ((x Bool))  (exists ((x1 Bool)) (and(GTE x x1)  (implies (or (var64 x1) (var27 x1) (not(var58 x1)) (not(var8 x1)) (var76 x1)) (var2 x))))))
(assert (forall ((x Bool))  (exists ((x1 Bool)) (and(GTE x x1)  (implies (or (var12 x1) (var56 x1)) (or (not(var4 x)) (var3 x) (var60 x) (var96 x)))))))
(assert (forall ((x Bool))  (exists ((x1 Bool)) (and(GTE x x1)  (implies (or (not(var86 x1)) (var38 x1)) (or (var9 x) (var89 x) (var96 x) (not(var35 x))))))))
(assert (forall ((x Bool))  (exists ((x1 Bool)) (and(GTE x x1)  (implies (or (var64 x1) (not(var48 x1))) (or (not(var89 x)) (not(var52 x)) (var59 x) (var76 x)))))))
(assert (forall ((x Bool))  (exists ((x1 Bool)) (and(GTE x x1)  (implies (not(var24 x1)) (or (not(var28 x)) (var100 x) (not(var59 x)) (var12 x) (var15 x)))))))
(assert (forall ((x Bool))  (exists ((x1 Bool)) (and(GTE x x1)  (implies (or (var80 x1) (not(var68 x1)) (var36 x1)) (or (var66 x) (var37 x) (var50 x)))))))
(assert (forall ((x Bool))  (exists ((x1 Bool)) (and(GTE x x1)  (implies (or (not(var46 x1)) (not(var36 x1)) (not(var99 x1)) (var76 x1) (var66 x1)) (var95 x))))))
(assert (forall ((x Bool)) (not(or (var86 x) (var15 x) (var62 x) (var84 x) (not(var25 x)) (not(var87 x)) (var76 x) (var2 x)))))
(assert (forall ((x Bool)) (not(or (not(var27 x)) (var37 x) (not(var53 x)) (var46 x) (var43 x) (not(var48 x)) (var5 x) (var67 x)))))
(assert (forall ((x Bool)) (not(or (var12 x) (var35 x) (var83 x) (not(var99 x)) (var82 x) (not(var66 x)) (not(var21 x)) (not(var9 x))))))
(assert (forall ((x Bool)) (not(or (not(var89 x)) (var74 x) (var40 x) (not(var19 x)) (var13 x) (not(var5 x)) (var46 x) (var25 x)))))
(assert (forall ((x Bool)) (not(or (not(var9 x)) (var5 x) (not(var11 x)) (not(var91 x)) (not(var19 x)) (not(var67 x)) (not(var43 x)) (not(var80 x))))))
(assert (forall ((x Bool)) (not(or (not(var56 x)) (not(var48 x)) (not(var31 x)) (var11 x) (var61 x) (var54 x) (not(var38 x)) (var40 x)))))
(assert (forall ((x Bool)) (not(or (not(var99 x)) (not(var81 x)) (var96 x) (var42 x) (not(var61 x)) (var34 x) (var93 x) (var51 x)))))
(assert (forall ((x Bool)) (not(or (not(var2 x)) (not(var46 x)) (not(var36 x)) (not(var77 x)) (var88 x) (not(var98 x)) (var63 x) (not(var54 x))))))
(assert (forall ((x Bool)) (not(or (not(var65 x)) (var12 x) (var83 x) (not(var13 x)) (not(var88 x)) (not(var52 x)) (not(var75 x)) (var3 x)))))
(assert (forall ((x Bool)) (not(or (not(var7 x)) (not(var52 x)) (not(var13 x)) (var24 x) (not(var31 x)) (var39 x) (not(var14 x)) (not(var57 x))))))
(assert (forall ((x Bool)) (not(or (not(var41 x)) (var42 x) (not(var56 x)) (not(var89 x)) (not(var34 x)) (not(var28 x)) (var52 x) (var46 x)))))
(assert (forall ((x Bool)) (not(or (var98 x) (var89 x) (var11 x) (not(var37 x)) (var87 x) (var93 x) (var6 x) (var16 x)))))
(assert (forall ((x Bool)) (not(or (not(var87 x)) (not(var70 x)) (not(var7 x)) (var33 x) (var93 x) (var22 x) (var4 x) (not(var96 x))))))
(assert (forall ((x Bool)) (not(or (not(var73 x)) (var61 x) (var51 x) (not(var71 x)) (var10 x) (not(var60 x)) (not(var85 x)) (not(var12 x))))))
(assert (forall ((x Bool)) (not(or (var53 x) (var68 x) (var95 x) (not(var55 x)) (var91 x) (var27 x) (not(var34 x)) (not(var63 x))))))
(assert (forall ((x Bool)) (not(or (not(var24 x)) (var34 x) (var25 x) (var20 x) (not(var67 x)) (var17 x) (var36 x) (var92 x)))))
(assert (forall ((x Bool)) (not(or (var26 x) (var93 x) (var65 x) (not(var95 x)) (not(var85 x)) (not(var96 x)) (not(var71 x)) (var34 x)))))
(assert (forall ((x Bool)) (not(or (var41 x) (var80 x) (var62 x) (not(var88 x)) (not(var29 x)) (var49 x) (var61 x) (var18 x)))))
(assert (forall ((x Bool)) (not(or (not(var1 x)) (var14 x) (not(var50 x)) (not(var31 x)) (var87 x) (not(var67 x)) (var100 x) (not(var69 x))))))
(assert (forall ((x Bool)) (not(or (not(var70 x)) (not(var40 x)) (not(var31 x)) (not(var73 x)) (var64 x) (var41 x) (not(var9 x)) (not(var79 x))))))
(assert (forall ((x Bool)) (not(or (not(var6 x)) (var30 x) (var48 x) (var68 x) (var15 x) (not(var73 x)) (not(var76 x)) (not(var82 x))))))
(assert (forall ((x Bool)) (not(or (var55 x) (var20 x) (not(var83 x)) (var99 x) (not(var34 x)) (var37 x) (not(var84 x)) (var43 x)))))
(assert (forall ((x Bool)) (not(or (var21 x) (var55 x) (var68 x) (not(var27 x)) (not(var23 x)) (not(var24 x)) (var44 x) (var47 x)))))
(assert (forall ((x Bool)) (not(or (var83 x) (var53 x) (not(var73 x)) (var60 x) (not(var98 x)) (not(var17 x)) (not(var79 x)) (not(var26 x))))))
(assert (forall ((x Bool)) (not(or (var38 x) (var51 x) (not(var60 x)) (not(var37 x)) (not(var87 x)) (not(var8 x)) (not(var36 x)) (var35 x)))))
(assert (forall ((x Bool)) (not(or (not(var19 x)) (not(var22 x)) (var85 x) (not(var54 x)) (var39 x) (not(var38 x)) (not(var32 x)) (var75 x)))))
(assert (forall ((x Bool))  (exists ((x1 Bool)) (and(GTE x x1)  (implies (or (var87 x1) (not(var75 x1)) (not(var64 x1)) (not(var31 x1)) (not(var72 x1)) (var42 x1) (not(var9 x1))) (var54 x))))))
(assert (forall ((x Bool))  (exists ((x1 Bool)) (and(GTE x x1)  (implies (or (not(var93 x1)) (not(var23 x1))) (or (var95 x) (not(var84 x)) (not(var54 x)) (not(var85 x)) (not(var56 x)) (not(var51 x))))))))
(assert (forall ((x Bool))  (exists ((x1 Bool)) (and(GTE x x1)  (implies (var60 x1) (or (var56 x) (var97 x) (not(var78 x)) (not(var36 x)) (not(var9 x)) (var62 x) (not(var48 x))))))))
(assert (forall ((x Bool))  (exists ((x1 Bool)) (and(GTE x x1)  (implies (or (not(var77 x1)) (not(var50 x1)) (var6 x1) (not(var74 x1)) (not(var15 x1))) (or (var29 x) (var87 x) (var64 x)))))))
(assert (forall ((x Bool))  (exists ((x1 Bool)) (and(GTE x x1)  (implies (not(var35 x1)) (or (not(var93 x)) (not(var61 x)) (var15 x) (var60 x) (not(var41 x)) (not(var51 x)) (not(var48 x))))))))
(assert (forall ((x Bool))  (exists ((x1 Bool)) (and(GTE x x1)  (implies (or (not(var22 x1)) (var44 x1) (not(var20 x1)) (not(var8 x1)) (var55 x1)) (or (var83 x) (var13 x) (var48 x)))))))
(assert (forall ((x Bool))  (exists ((x1 Bool)) (and(GTE x x1)  (implies (or (var80 x1) (not(var37 x1)) (not(var23 x1)) (var16 x1) (var84 x1) (not(var22 x1)) (not(var50 x1))) (not(var32 x)))))))
(assert (forall ((x Bool)) (not(or (var60 x) (not(var33 x)) (var29 x) (var68 x) (var46 x) (var58 x) (not(var51 x)) (not(var98 x)) (var37 x) (not(var71 x))))))
(assert (forall ((x Bool)) (not(or (var48 x) (not(var91 x)) (not(var86 x)) (var18 x) (not(var5 x)) (not(var26 x)) (not(var42 x)) (not(var6 x)) (var35 x) (var67 x)))))
(assert (forall ((x Bool)) (not(or (var95 x) (not(var88 x)) (var43 x) (not(var27 x)) (var2 x) (var89 x) (not(var97 x)) (not(var65 x)) (not(var12 x)) (not(var92 x))))))
(assert (forall ((x Bool)) (not(or (not(var59 x)) (not(var80 x)) (not(var65 x)) (not(var62 x)) (not(var90 x)) (not(var31 x)) (not(var21 x)) (var27 x) (var14 x) (not(var40 x))))))
(assert (forall ((x Bool)) (not(or (var64 x) (var19 x) (not(var60 x)) (var82 x) (var37 x) (not(var17 x)) (var4 x) (not(var16 x)) (var41 x) (var46 x)))))
(assert (forall ((x Bool)) (not(or (var34 x) (not(var79 x)) (not(var93 x)) (not(var60 x)) (var81 x) (not(var70 x)) (not(var77 x)) (not(var35 x)) (not(var28 x)) (var6 x)))))
(assert (forall ((x Bool)) (not(or (not(var92 x)) (var2 x) (var36 x) (not(var8 x)) (var62 x) (not(var34 x)) (var99 x) (var77 x) (not(var57 x)) (var20 x)))))
(assert (forall ((x Bool)) (not(or (var94 x) (var26 x) (not(var81 x)) (var90 x) (not(var100 x)) (var18 x) (not(var34 x)) (not(var33 x)) (not(var9 x)) (not(var16 x))))))
(assert (forall ((x Bool)) (not(or (not(var100 x)) (var94 x) (var71 x) (not(var8 x)) (not(var67 x)) (not(var29 x)) (not(var49 x)) (not(var13 x)) (var52 x) (not(var27 x))))))
(assert (forall ((x Bool)) (not(or (not(var25 x)) (var88 x) (not(var35 x)) (var50 x) (var60 x) (var71 x) (var78 x) (var97 x) (not(var51 x)) (var91 x)))))
(assert (forall ((x Bool)) (not(or (var26 x) (var6 x) (var17 x) (not(var45 x)) (not(var88 x)) (not(var89 x)) (not(var96 x)) (not(var77 x)) (not(var93 x)) (var8 x)))))
(assert (forall ((x Bool)) (not(or (not(var16 x)) (var52 x) (var63 x) (var37 x) (not(var8 x)) (var20 x) (var98 x) (not(var28 x)) (not(var69 x)) (var90 x)))))
(assert (forall ((x Bool)) (not(or (var68 x) (var36 x) (var3 x) (var30 x) (var15 x) (var26 x) (var100 x) (var29 x) (var65 x) (var37 x)))))
(assert (forall ((x Bool)) (not(or (not(var11 x)) (not(var20 x)) (var85 x) (var80 x) (not(var59 x)) (var60 x) (var32 x) (not(var14 x)) (var68 x) (var21 x)))))
(assert (forall ((x Bool)) (not(or (not(var92 x)) (var10 x) (not(var51 x)) (var65 x) (not(var93 x)) (not(var2 x)) (var73 x) (not(var57 x)) (var7 x) (not(var21 x))))))
(assert (forall ((x Bool)) (not(or (var51 x) (var61 x) (var33 x) (not(var40 x)) (var76 x) (var28 x) (not(var25 x)) (not(var100 x)) (var9 x) (var90 x)))))
(assert (forall ((x Bool)) (not(or (not(var3 x)) (not(var41 x)) (not(var64 x)) (not(var67 x)) (var65 x) (not(var86 x)) (var10 x) (not(var34 x)) (not(var51 x)) (not(var60 x))))))
(assert (forall ((x Bool)) (not(or (var99 x) (not(var77 x)) (var84 x) (var11 x) (var17 x) (var40 x) (not(var85 x)) (not(var89 x)) (not(var37 x)) (var70 x)))))
(assert (forall ((x Bool)) (not(or (var17 x) (var26 x) (not(var61 x)) (not(var41 x)) (not(var11 x)) (var97 x) (not(var67 x)) (var78 x) (not(var63 x)) (not(var29 x))))))
(assert (forall ((x Bool)) (not(or (not(var4 x)) (var3 x) (not(var11 x)) (not(var45 x)) (not(var61 x)) (var43 x) (not(var40 x)) (not(var26 x)) (not(var86 x)) (var13 x)))))
(assert (forall ((x Bool)) (not(or (var44 x) (not(var42 x)) (var23 x) (var27 x) (var60 x) (var19 x) (var65 x) (not(var6 x)) (not(var9 x)) (not(var75 x))))))
(assert (forall ((x Bool)) (not(or (not(var83 x)) (var91 x) (not(var35 x)) (var94 x) (var50 x) (var25 x) (not(var99 x)) (var28 x) (var7 x) (not(var44 x))))))
(assert (forall ((x Bool)) (not(or (not(var1 x)) (not(var16 x)) (var35 x) (not(var69 x)) (var36 x) (var38 x) (var86 x) (not(var10 x)) (var46 x) (var5 x)))))
(assert (forall ((x Bool)) (not(or (not(var79 x)) (var16 x) (not(var21 x)) (var96 x) (var46 x) (not(var87 x)) (not(var97 x)) (not(var77 x)) (not(var56 x)) (not(var14 x))))))
(assert (forall ((x Bool)) (not(or (var5 x) (not(var60 x)) (var18 x) (not(var91 x)) (var58 x) (not(var65 x)) (not(var50 x)) (var82 x) (not(var56 x)) (not(var69 x))))))
(assert (forall ((x Bool)) (not(or (not(var51 x)) (not(var11 x)) (not(var6 x)) (var46 x) (var55 x) (not(var56 x)) (not(var59 x)) (not(var87 x)) (not(var97 x)) (not(var16 x))))))
(assert (forall ((x Bool))  (exists ((x1 Bool)) (and(GTE x x1)  (implies (or (var66 x1) (not(var10 x1)) (not(var18 x1)) (var65 x1) (var40 x1) (not(var56 x1)) (not(var77 x1)) (var24 x1)) (or (not(var58 x)) (var36 x)))))))
(assert (forall ((x Bool))  (exists ((x1 Bool)) (and(GTE x x1)  (implies (or (var62 x1) (not(var37 x1))) (or (var96 x) (var66 x) (not(var81 x)) (not(var25 x)) (var48 x) (var19 x) (not(var5 x)) (not(var29 x))))))))
(assert (forall ((x Bool))  (exists ((x1 Bool)) (and(GTE x x1)  (implies (not(var65 x1)) (or (var90 x) (var22 x) (var91 x) (var72 x) (var93 x) (not(var88 x)) (not(var1 x)) (var71 x) (not(var24 x))))))))
(assert (forall ((x Bool))  (exists ((x1 Bool)) (and(GTE x x1)  (implies (or (var26 x1) (not(var82 x1)) (not(var30 x1)) (var60 x1) (not(var50 x1)) (not(var5 x1)) (not(var46 x1))) (or (var47 x) (not(var43 x)) (var72 x)))))))
(assert (forall ((x Bool))  (exists ((x1 Bool)) (and(GTE x x1)  (implies (var68 x1) (or (var43 x) (var25 x) (var66 x) (not(var54 x)) (not(var28 x)) (var21 x) (not(var3 x)) (not(var83 x)) (var78 x)))))))
(assert (forall ((x Bool))  (exists ((x1 Bool)) (and(GTE x x1)  (implies (or (not(var64 x1)) (not(var36 x1)) (not(var13 x1)) (var78 x1)) (or (not(var45 x)) (not(var46 x)) (not(var35 x)) (var83 x) (not(var86 x)) (var26 x)))))))
(assert (forall ((x Bool))  (exists ((x1 Bool)) (and(GTE x x1)  (implies (or (not(var51 x1)) (not(var82 x1)) (not(var87 x1)) (var44 x1)) (or (var17 x) (var68 x) (var54 x) (var62 x) (var47 x) (var96 x)))))))
(assert (forall ((x Bool)) (not(or (not(var2 x)) (var22 x)))))
(assert (forall ((x Bool)) (not(or (var6 x) (var63 x) (var91 x)))))
(check-sat)
(get-model)
